proyfinal/src/viki/013/experimentInOfficeAgust.take6.output/2912548c-d23a-4d62-87ab-e5cf0405cad2.als.dat
{'cnf.clauses': '118081',
 'cnf.totvars': '69608',
 'conflict literals': '25',
 'conflicts': '14',
 'decisions': '4803',
 'memused.mb': '16.68',
 'outcome': 'UNSAT',
 'propagations': '27256',
 'restarts': '1',
 'solver.msecs': 30,
 'task.msecs': 82}
