proyfinal/src/viki/013/experimentInOfficeAgust.take6.output/2912548c-d23a-4d62-87ab-e5cf0405cad2.als.out
Reading from standard input... Use '--help' for help.
============================[ Problem Statistics ]=============================
|                                                                             |
|  Number of variables:         69608                                         |
|  Number of clauses:          118081                                         |
|  Parse time:                   0.02 s                                       |
|                                                                             |
============================[ Search Statistics ]==============================
| Conflicts |          ORIGINAL         |          LEARNT          | Progress |
|           |    Vars  Clauses Literals |    Limit  Clauses Lit/Cl |          |
===============================================================================
===============================================================================
restarts              : 1
conflicts             : 14             (458 /sec)
decisions             : 4803           (0.00 % random) (157182 /sec)
propagations          : 27256          (891972 /sec)
conflict literals     : 25             (0.00 % deleted)
Memory used           : 16.68 MB
CPU time              : 0.030557 s

UNSATISFIABLE
